g3 2 1 0	# problem inst_sans_ref
 16 32 1 0 8	# vars, constraints, objectives, ranges, eqns
 8 1	# nonlinear constraints, objectives
 0 0	# network constraints: nonlinear, linear
 8 8 8	# nonlinear vars in constraints, objectives, both
 0 0 0 1	# linear network variables; functions; arith, flags
 0 0 0 0 0	# discrete variables: binary, integer, nonlinear (b,c,o)
 64 16	# nonzeros in Jacobian, gradients
 0 0	# max name lengths: constraints, variables
 0 0 0 0 0	# common exprs: b,c,o,c1,o1
b
0 0 1
0 0 1
0 0 1
0 0 1
0 0 1
0 0 1
0 0 1
0 0 1
0 0 1
0 0 1
0 0 1
0 0 1
0 0 1
0 0 1
0 0 1
0 0 1
r
4 0
4 0
4 0
4 0
4 0
4 0
4 0
4 0
1 0
1 0
1 0
1 0
1 0
1 0
1 0
1 0
2 -1
2 -1
2 -1
2 -1
2 -1
2 -1
2 -1
2 -1
2 0
2 0
2 0
2 0
2 0
2 0
2 0
2 0
C0
o16
o2
v0
v0
C1
o16
o2
v1
v1
C2
o16
o2
v2
v2
C3
o16
o2
v3
v3
C4
o16
o2
v4
v4
C5
o16
o2
v5
v5
C6
o16
o2
v6
v6
C7
o16
o2
v7
v7
C8
n0
C9
n0
C10
n0
C11
n0
C12
n0
C13
n0
C14
n0
C15
n0
C16
n0
C17
n0
C18
n0
C19
n0
C20
n0
C21
n0
C22
n0
C23
n0
C24
n0
C25
n0
C26
n0
C27
n0
C28
n0
C29
n0
C30
n0
C31
n0
O0 0
o54
24
o2
o2
n2.299949
v0
v0
o2
o2
n-0.89
v0
v4
o2
o2
n-0.825
v0
v6
o2
o2
n-0.395
v0
v7
o2
o2
n1.396374
v1
v1
o2
o2
n-0.85
v1
v6
o2
o2
n-0.38
v1
v7
o2
o2
n0.941773
v2
v2
o2
o2
n-0.61
v2
v4
o2
o2
n0.31
v2
v5
o2
o2
n0.474806
v3
v3
o2
o2
n-0.685
v3
v7
o2
o2
n-0.89
v4
v0
o2
o2
n-0.61
v4
v2
o2
o2
n3.226275
v4
v4
o2
o2
n0.31
v5
v2
o2
o2
n0.125469
v5
v5
o2
o2
n-0.825
v6
v0
o2
o2
n-0.85
v6
v1
o2
o2
n1.949778
v6
v6
o2
o2
n-0.395
v7
v0
o2
o2
n-0.38
v7
v1
o2
o2
n-0.685
v7
v3
o2
o2
n2.042436
v7
v7
k15
4
8
12
16
20
24
28
32
36
40
44
48
52
56
60
J0 2
0 0
8 1
J1 2
1 0
9 1
J2 2
2 0
10 1
J3 2
3 0
11 1
J4 2
4 0
12 1
J5 2
5 0
13 1
J6 2
6 0
14 1
J7 2
7 0
15 1
J8 2
0 -1
8 1
J9 2
1 -1
9 1
J10 2
2 -1
10 1
J11 2
3 -1
11 1
J12 2
4 -1
12 1
J13 2
5 -1
13 1
J14 2
6 -1
14 1
J15 2
7 -1
15 1
J16 2
0 -2
8 1
J17 2
1 -2
9 1
J18 2
2 -2
10 1
J19 2
3 -2
11 1
J20 2
4 -2
12 1
J21 2
5 -2
13 1
J22 2
6 -2
14 1
J23 2
7 -2
15 1
J24 2
0 -1
8 1
J25 2
1 -1
9 1
J26 2
2 -1
10 1
J27 2
3 -1
11 1
J28 2
4 -1
12 1
J29 2
5 -1
13 1
J30 2
6 -1
14 1
J31 2
7 -1
15 1
G0 16
0 0.73
1 -0.13
2 0.25
3 0.73
4 -0.92
5 -0.49
6 -0.13
7 -0.47
8 -2.299949
9 -1.396374
10 -0.941773
11 -0.474806
12 -3.226275
13 -0.125469
14 -1.949778
15 -2.042436
